0 3440
1 479
2 478
3 478
4 467
5 465
6 465
7 460
8 458
9 458
10 457
11 453
12 453
13 453
14 453
15 453
16 453
17 453
18 451
19 451
20 451
21 450
22 450
23 450
24 450
25 449
26 449
27 449
28 449
29 449
30 449
31 449
32 449
33 449
34 449
35 449
36 449
37 449
38 449
39 449
40 449
41 449
42 449
43 448
44 448
45 448
46 448
47 448
48 448
49 448
50 448
51 448
52 448
53 448
54 448
55 448
56 448
57 448
58 448
59 448
60 448
61 448
62 448
63 448
64 448
65 448
66 448
67 448
68 446
69 446
70 446
71 446
72 446
73 446
74 446
75 446
76 446
77 446
78 446
79 446
80 446
81 446
82 446
83 446
84 446
85 446
86 446
87 446
88 446
89 446
90 446
91 446
92 445
93 445
94 445
95 445
96 445
97 445
98 445
99 445
100 445
101 445
102 445
103 445
104 445
105 445
106 445
107 445
108 445
109 445
110 445
111 445
112 445
113 445
114 445
115 445
116 445
117 445
118 445
119 445
120 445
121 445
122 445
123 445
124 445
125 445
126 445
127 445
128 445
129 445
130 445
131 445
132 445
133 445
134 445
135 445
136 445
137 445
138 445
139 445
140 445
141 445
142 445
143 445
144 445
145 445
146 445
147 445
148 445
149 445
150 445
151 445
152 445
153 445
154 445
155 445
156 445
157 445
158 445
159 445
160 445
161 445
162 445
163 445
164 445
165 445
166 445
167 445
168 445
169 445
170 445
171 445
172 445
173 445
174 445
175 445
176 445
177 445
178 445
179 445
180 445
181 445
182 445
183 445
184 445
185 445
186 445
187 445
188 445
189 445
190 445
191 445
192 445
193 445
194 445
195 445
196 445
197 445
198 445
199 445
200 445
201 445
202 445
203 445
204 445
205 445
206 445
207 445
208 445
209 445
210 445
211 445
212 445
213 445
214 445
215 445
216 445
217 445
218 445
219 445
220 445
221 445
222 445
223 445
224 445
225 445
226 445
227 445
228 445
229 445
230 445
231 445
232 445
233 445
234 445
235 445
236 445
237 445
238 445
239 445
240 445
241 445
242 445
243 445
244 445
245 445
246 445
247 445
248 445
249 445
250 445
251 445
252 445
253 445
254 445
255 445
256 445
257 445
258 445
259 445
260 445
261 445
262 445
263 445
264 445
265 445
266 445
267 443
268 443
269 443
270 443
271 443
272 443
273 443
274 443
275 443
276 443
277 443
278 443
279 443
280 443
281 443
282 443
283 443
284 443
285 443
286 443
287 443
288 443
289 443
290 443
291 443
292 443
293 443
294 443
295 443
296 443
297 443
298 443
299 443
300 443
301 443
302 443
303 443
304 443
305 443
306 443
307 443
308 443
309 443
310 443
311 443
312 443
313 443
314 443
315 443
316 443
317 443
318 443
319 443
320 443
321 443
322 443
323 443
324 443
325 443
326 443
327 443
328 443
329 443
330 443
331 443
332 443
333 443
334 443
335 443
336 443
337 443
338 443
339 443
340 443
341 443
342 443
343 443
344 443
345 443
346 443
347 443
348 443
349 443
350 443
351 443
352 443
353 443
354 443
355 443
356 443
357 443
358 443
359 443
360 443
361 443
362 443
363 443
364 443
365 443
366 443
367 443
368 443
369 443
370 443
371 443
372 443
373 443
374 443
375 443
376 443
377 443
378 443
379 443
380 443
381 443
382 443
383 443
384 443
385 443
386 443
387 443
388 443
389 443
390 443
391 443
392 443
393 443
394 443
395 443
396 443
397 443
398 443
399 443
400 443
401 443
402 443
403 443
404 443
405 443
406 443
407 443
408 443
409 443
410 443
411 443
412 443
413 443
414 443
415 443
416 443
417 443
418 443
419 443
420 443
421 443
422 443
423 443
424 443
425 443
426 443
427 443
428 443
429 443
430 443
431 443
432 443
433 443
434 443
435 443
436 443
437 443
438 443
439 443
440 443
441 443
442 443
443 443
444 443
445 443
446 443
447 443
448 443
449 443
450 443
451 443
452 443
453 443
454 443
455 443
456 443
457 443
458 443
459 443
460 443
461 443
462 443
463 443
464 443
465 443
466 443
467 443
468 443
469 443
470 443
471 443
472 443
473 443
474 443
475 443
476 443
477 443
478 443
479 443
480 443
481 443
482 443
483 443
484 443
485 443
486 443
487 443
488 443
489 443
490 443
491 443
492 443
493 443
494 443
495 443
496 443
497 443
498 443
499 443
500 443
501 443
502 443
503 443
504 443
505 443
506 443
507 443
508 443
509 443
510 443
511 443
512 443
513 443
514 443
515 443
516 443
517 443
518 443
519 443
520 443
521 443
522 443
523 443
524 443
525 443
526 443
527 443
528 443
529 443
530 443
531 443
532 443
533 443
534 443
535 443
536 443
537 443
538 443
539 443
540 443
541 443
542 443
543 443
544 443
545 443
546 443
547 443
548 443
549 443
550 443
551 443
552 443
553 443
554 443
555 443
556 443
557 443
558 443
559 443
560 443
561 443
562 443
563 443
564 443
565 443
566 443
567 443
568 443
569 443
570 443
571 443
572 443
573 443
574 443
575 443
576 443
577 443
578 443
579 443
580 443
581 443
582 443
583 443
584 443
585 443
586 443
587 443
588 443
589 443
590 443
591 443
592 443
593 443
594 443
595 443
596 443
597 443
598 443
599 443
600 443
601 443
602 443
603 443
604 443
605 443
606 443
607 443
608 443
609 443
610 443
611 443
612 443
613 443
614 443
615 443
616 443
617 443
618 443
619 443
620 443
621 443
622 443
623 443
624 443
625 443
626 443
627 443
628 443
629 443
630 443
631 443
632 443
633 443
634 443
635 443
636 443
637 443
638 443
639 443
640 443
641 443
642 443
643 443
644 443
645 443
646 443
647 443
648 443
649 443
650 443
651 443
652 443
653 443
654 443
655 443
656 443
657 443
658 443
659 443
660 443
661 443
662 443
663 443
664 443
665 443
666 443
667 443
668 443
669 443
670 443
671 443
672 443
673 443
674 443
675 443
676 443
677 443
678 443
679 443
680 443
681 443
682 443
683 443
684 443
685 443
686 443
687 443
688 443
689 443
690 443
691 443
692 443
693 443
694 443
695 443
696 443
697 443
698 443
699 443
700 443
701 443
702 443
703 443
704 443
705 443
706 443
707 443
708 443
709 443
710 443
711 443
712 443
713 443
714 443
715 443
716 443
717 443
718 443
719 443
720 443
721 443
722 443
723 443
724 443
725 443
726 443
727 443
728 443
729 443
730 443
731 443
732 443
733 443
734 443
735 443
736 443
737 443
738 443
739 443
740 443
741 443
742 443
743 443
744 443
745 443
746 443
747 443
748 443
749 443
750 443
751 443
752 443
753 443
754 443
755 443
756 443
757 443
758 443
759 443
760 443
761 443
762 443
763 443
764 443
765 443
766 443
767 443
768 443
769 443
770 443
771 443
772 443
773 443
774 443
775 443
776 443
777 443
778 443
779 443
780 443
781 443
782 443
783 443
784 443
785 443
786 443
787 443
788 443
789 443
790 443
791 443
792 443
793 443
794 443
795 443
796 443
797 443
798 443
799 443
800 443
801 443
802 443
803 443
804 443
805 443
806 443
807 443
808 443
809 443
810 443
811 443
812 443
813 443
814 443
815 443
816 443
817 443
818 443
819 443
820 443
821 443
822 443
823 443
824 443
825 443
826 443
827 443
828 443
829 443
830 443
831 443
832 443
833 443
834 443
835 443
836 443
837 443
838 443
839 443
840 443
841 443
842 443
843 443
844 443
845 443
846 443
847 443
848 443
849 443
850 443
851 443
852 443
853 443
854 443
855 443
856 443
857 443
858 443
859 443
860 443
861 443
862 443
863 443
864 443
865 443
866 443
867 443
868 443
869 443
870 443
871 443
872 443
873 443
874 443
875 443
876 443
877 443
878 443
879 443
880 443
881 443
882 443
883 443
884 443
885 443
886 443
887 443
888 443
889 443
890 443
891 443
892 443
893 443
894 443
895 443
896 443
897 443
898 443
899 443
900 443
901 443
902 443
903 443
904 443
905 443
906 443
907 443
908 443
909 443
910 443
911 443
912 443
913 443
914 443
915 443
916 443
917 443
918 443
919 443
920 443
921 443
922 443
923 443
924 443
925 443
926 443
927 443
928 443
929 443
930 443
931 443
932 443
933 443
934 443
935 443
936 443
937 443
938 443
939 443
940 443
941 443
942 443
943 443
944 443
945 443
946 443
947 443
948 443
949 443
950 443
951 443
952 443
953 443
954 443
955 443
956 443
957 443
958 443
959 443
960 443
961 443
962 443
963 443
964 443
965 443
966 443
967 443
968 443
969 443
970 443
971 443
972 443
973 443
974 443
975 443
976 443
977 443
978 443
979 443
980 443
981 443
982 443
983 443
984 443
985 443
986 443
987 443
988 443
989 443
990 443
991 443
992 443
993 443
994 443
995 443
996 443
997 443
998 443
999 443
